p tw 392 436
1 2
2 113
3 14
4 5
5 6
6 7
6 350
7 34
8 9
9 10
10 11
11 12
12 13
12 18
13 15
14 25
15 16
16 17
17 31
18 19
19 20
20 21
20 26
21 22
22 23
23 24
24 31
25 36
25 39
26 27
27 28
28 29
29 30
30 31
31 32
32 33
33 34
34 35
35 37
36 47
37 38
38 327
39 40
40 41
41 42
42 43
43 44
44 45
44 53
45 46
46 48
47 58
48 49
49 50
50 51
51 52
52 42
53 54
54 55
55 56
55 62
56 57
57 59
58 69
58 39
59 60
60 61
61 62
62 63
63 64
64 65
65 66
66 67
67 68
68 70
69 80
70 71
71 72
72 73
73 74
74 75
75 76
76 77
77 78
77 84
78 79
79 81
80 91
81 82
82 83
83 104
84 85
85 86
86 87
87 88
88 89
89 90
90 92
91 102
91 213
92 93
93 94
94 95
95 96
95 104
96 97
97 98
98 99
99 100
100 101
101 103
102 114
103 104
104 105
105 106
106 107
107 108
108 109
109 110
110 111
111 112
112 115
113 224
114 125
115 116
116 117
117 118
117 126
118 119
119 120
120 121
121 122
122 123
123 124
124 126
125 136
125 333
126 127
127 128
128 129
129 130
130 131
131 132
132 133
133 134
134 135
135 137
136 147
137 138
138 139
139 140
140 141
141 142
142 143
142 144
143 144
143 150
144 145
145 146
145 322
146 148
147 158
147 8
148 149
149 150
149 322
150 151
151 152
151 165
152 153
152 165
153 154
154 155
155 156
156 157
157 159
158 169
159 160
160 161
161 162
162 163
163 164
164 165
164 167
165 166
166 167
166 184
167 168
168 170
169 180
169 345
170 171
170 174
171 172
172 173
173 174
174 175
175 176
176 177
177 178
178 179
179 181
180 191
181 182
182 183
183 139
184 185
185 186
185 199
186 187
186 199
187 188
188 189
189 190
190 192
191 202
191 339
192 193
193 194
194 195
195 196
196 197
197 198
198 199
198 201
199 200
200 201
200 214
201 203
202 34
203 204
204 205
204 208
205 206
206 207
207 208
208 209
209 210
210 211
211 212
212 139
213 225
214 215
215 216
216 217
216 241
217 218
218 219
219 220
220 221
221 222
222 223
223 226
224 327
225 236
226 227
227 228
228 229
228 241
229 230
230 231
231 232
232 233
233 234
234 235
235 237
236 247
237 238
238 239
239 240
240 214
241 242
242 243
243 244
244 245
245 246
246 248
247 258
247 291
248 249
249 250
250 251
251 252
252 253
253 254
254 255
255 256
256 257
257 259
257 278
258 269
259 260
259 278
260 261
261 262
262 263
263 264
264 265
265 266
266 267
267 268
268 270
269 280
269 324
270 271
270 278
271 272
272 273
273 274
274 275
275 276
276 277
277 254
278 279
279 281
279 294
280 330
281 282
281 294
282 283
283 284
284 285
285 286
286 287
287 288
288 289
289 290
290 292
291 302
292 293
293 294
293 296
294 295
295 296
295 310
296 297
297 298
298 299
299 300
300 301
301 303
302 313
303 304
304 305
305 306
306 307
307 308
308 309
309 254
310 311
311 312
312 314
313 34
314 315
315 316
316 317
317 318
318 319
319 320
320 321
321 139
322 323
323 325
324 328
325 326
327 338
328 329
329 34
330 331
331 332
332 34
333 334
334 335
335 336
336 337
337 34
338 349
339 340
340 341
341 342
342 343
343 344
344 34
345 346
346 347
347 348
348 350
349 360
350 351
351 352
352 353
353 354
354 355
355 356
356 357
357 358
357 373
358 359
359 361
360 371
361 362
361 373
362 363
363 364
364 365
365 366
366 367
367 368
368 369
369 370
370 372
371 382
371 39
372 388
373 374
374 375
375 376
375 34
376 377
377 378
378 379
378 34
379 380
380 381
381 383
382 3
383 384
384 385
385 386
386 387
387 388
388 389
389 390
390 391
391 392
392 4
